{"lblp_lower": [187.68630738522955, 190.3], "cuttingPlaneBendInfo": [{"tot_cut_value": 0, "TOT_gen_cut": 0, "tot_time_opt": 0, "max_time_opt": 0}, {"tot_cut_value": 0, "TOT_gen_cut": 0, "tot_time_opt": 0, "max_time_opt": 0}], "time_compress": [0, 0], "ub_lp": [190.3, 190.3], "prob_sizes_at_start": [{"timeGraph": 55, "capGraph": 52, "ngGraph": 27}, {"timeGraph": 60, "capGraph": 73, "ngGraph": 32}], "prob_sizes_after_compress": [{"timeGraph": 14, "capGraph": 21, "ngGraph": 10}, {"timeGraph": 21, "capGraph": 25, "ngGraph": 11}], "prob_sizes_after_split": [{"timeGraph": 60, "capGraph": 73, "ngGraph": 32}, {"timeGraph": 56, "capGraph": 63, "ngGraph": 28}], "did_compress": [true, true], "lp_time_project": [0.011773109436035156, 0.004183769226074219], "lp_time_LB": [0.016904830932617188, 0.00863194465637207], "ilp_time": [], "history_of_graphs_by_iter": [], "ROOT_LP_PRIOR_ADDING_CUTS": 190.3, "OUR_ilp_objective": 190.3, "OUR_MIP_Lower_Bound": 190.3, "OUR_ilp_time": 0.004834175109863281, "OUR_gurobi_MILP_str": "Gurobi Optimizer version 12.0.1 build v12.0.1rc0 (mac64[arm] - Darwin 24.5.0 24F74)\n\nCPU model: Apple M1\nThread count: 8 physical cores, 8 logical processors, using up to 8 threads\n\nNon-default parameters:\nTimeLimit  1000\n\nWLS license 2690165 - registered to Optym\nOptimize a model with 2681 rows, 1260 columns and 8394 nonzeros\nModel fingerprint: 0xe47d7b98\nVariable types: 787 continuous, 473 integer (473 binary)\nCoefficient statistics:\n  Matrix range     [7e-01, 1e+03]\n  Objective range  [1e+00, 4e+01]\n  Bounds range     [1e+00, 1e+03]\n  RHS range        [1e+00, 1e+03]\nPresolve removed 2681 rows and 1260 columns\nPresolve time: 0.00s\nPresolve: All rows and columns removed\n\nExplored 0 nodes (0 simplex iterations) in 0.00 seconds (0.01 work units)\nThread count was 1 (of 8 available processors)\n\nSolution count 1: 190.3 \n\nOptimal solution found (tolerance 1.00e-04)\nBest objective 1.903000000000e+02, best bound 1.903000000000e+02, gap 0.0000%\n", "jy_opt": {"ParetoEps": 1e-05, "turn_off_time_windows": false, "deactivate_time_graph": false, "deactivate_demand_graph": false, "epsilon": 0.0001, "weight_slack_projector": 1e-05, "weight_compress": 0.01, "num_cust_use": 25, "dem_step_sz": 1, "time_step_sz": 25, "use_compression": 1, "max_iterations_loop_compress_project": 100, "do_round_dist_times": 1, "my_shift_bet_time_win": 0.0001, "num_terms_per_bin_init_construct": 10, "allOneBig_init": 0, "min_inc_2_compress": 0.1, "save_graph_each_iter": 0, "use_Xpress": 0, "use_ineq": 1, "xpress_file_loc": "/Users/julian/Documents/FICO_Xpress_Config/xpauth.xpr", "run_baseline": 0, "verbose": 0, "use_NG_graph": 1, "num_NG": 5, "in_demo_mode": 0, "threshold_split": 0.01, "offset_cost_edge_project": 0, "use_classic_compress": 1, "use_classic_compress_last": 0, "num_thresh_split_projector": 10, "lplb_solver": 4, "compresss_solver": 0, "proj_solver": 4, "use_julians_custom_lp_solver": 0, "do_ilp": 1, "roundingDiscretization_num_digits_keep": 3, "doExrtraRemovalEdgesLB": 0, "use_gurobi": 1, "max_ILP_time": 1000, "use_fancy_ng_graph": 1, "use_dem_graph": 1, "use_time_graph": 1, "num_multiplys_demand": 0, "DEBUG_ALLOW_DUMB_EDGES": 0, "add_all_ng_split_at_end": 0, "do_split_based_init": 1, "think_compress": 0, "use_delta_in_milp": [1], "use_delta_in_lp": 1, "turn_off_non_active_fg_project": 0, "use_new_valid_ineq": 0, "digit_mult_use": 10, "use_branch_on_g": true, "LAB_MP_ON": 0, "LAB_MP_neigh_use_power": 10, "LAB_MP_num_ineq_use": 10, "do_remove_actions_from_incumbant": 1, "ub_use_remove": 190.3, "use_packing_in_construction": 1, "maxVarsAdd_in_ITER": 10, "use_ng_size_init": 0, "do_presolve": 0, "use_diving_ineq": 1, "BEND_MIN_LP_OBJECTIVE_CUT": 0.1, "BEND_USE_RAND": 0, "BEND_MAX_SIZE_CHOOSE_K": 230, "BEND_VAL_STOP_ADDING_CUTS": 100000000, "BEND_MY_SIZES_USE": [9], "NUMERICAL_BEND_OFFSET_COST_CUT": 0.0001, "NUMERICAL_BEND_EPSILON_MULT_PARETO_OBJ": 0.001, "NO_PARETO_NUMERICAL_BEND_OFFSET_COST_CUT": 0, "NO_PARETO_BEND_VAL_STOP_ADDING_CUTS": 1, "NO_PARETO_EPSILON_MAX_VAL_CON": 0.01, "BENDERS_NEIGH_SZ_USE": 9, "Actions_of_given_sol": [], "all_vars_binary": 0, "use_ng": 1, "restore_after_each_step": 1, "compress_solver": 1, "DEBUG_NG_turn_off_CLEAN": false, "max_nodes_split": Infinity}, "output_ilp_solution": {"act_0_2": 1, "act_1_0": 1, "act_2_4": 1, "act_3_1": 1, "act_4_26": 1, "act_5_3": 1, "act_6_7": 1, "act_7_9": 1, "act_8_5": 1, "act_9_10": 1, "act_10_8": 1, "act_11_26": 1, "act_12_16": 1, "act_13_11": 1, "act_14_15": 1, "act_15_13": 1, "act_16_17": 1, "act_17_18": 1, "act_18_14": 1, "act_19_23": 1, "act_20_26": 1, "act_21_20": 1, "act_22_21": 1, "act_23_24": 1, "act_24_22": 1, "act_25_6": 1, "act_25_12": 1, "act_25_19": 1}, "Actions_of_given_sol": "none just used source and sink terms", "actions_used": ["act_0_2", "act_1_0", "act_2_4", "act_3_1", "act_4_26", "act_5_3", "act_6_7", "act_7_9", "act_8_5", "act_9_10", "act_10_8", "act_11_26", "act_12_16", "act_13_11", "act_14_15", "act_15_13", "act_16_17", "act_17_18", "act_18_14", "act_19_23", "act_20_26", "act_21_20", "act_22_21", "act_23_24", "act_24_22", "act_25_6", "act_25_12", "act_25_19"], "init_default_solution_is_empty": false, "objective_of_initial_sol": 1130.3999999999999, "my_paths": "[[25, 6, 7, 9, 10, 8, 5, 3, 1, 0, 2, 4, 26], [25, 12, 16, 17, 18, 14, 15, 13, 11, 26], [25, 19, 23, 24, 22, 21, 20, 26]]"}